n_res = 4;
rc = [ 20, 19, 20, 15 ];
n_tasks = 30;
d = [ 8, 3, 5, 7, 4, 8, 8, 4, 6, 8, 8, 2, 10, 9, 8, 7, 7, 3, 9, 4, 2, 4, 6, 2, 10, 9, 10, 6, 2, 6 ];
rr = [| 0, 0, 0, 9, 9, 0, 1, 1, 8, 7, 5, 10, 0, 0, 0, 4, 8, 5, 7, 0, 0, 3, 5, 5, 0, 0, 0, 0, 4, 0
      | 9, 4, 4, 0, 3, 0, 4, 4, 0, 7, 5, 0, 0, 5, 4, 0, 0, 6, 8, 7, 7, 0, 5, 0, 0, 2, 7, 0, 8, 0
      | 0, 0, 0, 8, 0, 0, 0, 0, 0, 0, 1, 5, 1, 8, 10, 0, 0, 6, 0, 4, 4, 0, 0, 10, 5, 8, 10, 9, 0, 10
      | 0, 8, 0, 0, 3, 1, 5, 0, 8, 0, 1, 1, 10, 0, 0, 0, 0, 0, 0, 10, 0, 0, 0, 7, 0, 8, 0, 5, 0, 0 |];
suc = [ { 2 }, 
        { 3 }, 
        { 4 }, 
        { 5 }, 
        { 6 }, 
        { 7 }, 
        { 8 }, 
        { 9 }, 
        { 10 }, 
        { 11 }, 
        { 12 }, 
        { 13 }, 
        { 14 }, 
        { 15 }, 
        { 16 }, 
        { 17 }, 
        { 18 }, 
        { 19 }, 
        { 20 }, 
        { 21 }, 
        { 22 }, 
        { 23 }, 
        { 24 }, 
        { 25 }, 
        { 26 }, 
        { 27 }, 
        { 28 }, 
        { 29 }, 
        { 30 }, 
        {  }]; 
